# Solution for model GasLib-40
# Objective value = 2.2094464076558118e+01
loadshed[innode_1] 0
loadshed[innode_2] 0
loadshed[innode_3] 0
loadshed[innode_4] 0
loadshed[innode_5] 0
loadshed[innode_6] 0
loadshed[innode_7] 0
loadshed[innode_8] 0
loadshed[source_1] -1.8252583771546127e-01
loadshed[source_2] -1.5136160777566854e-02
loadshed[source_3] 3.3742052373009168e-01
loadshed[sink_1] 0
loadshed[sink_2] 0
loadshed[sink_3] 0
loadshed[sink_4] 0
loadshed[sink_5] 0
loadshed[sink_6] 0
loadshed[sink_7] 0
loadshed[sink_8] 0
loadshed[sink_9] 0
loadshed[sink_10] 0
loadshed[sink_11] 0
loadshed[sink_12] 1
loadshed[sink_13] 0
loadshed[sink_14] 0
loadshed[sink_15] 0
loadshed[sink_16] 0
loadshed[sink_17] 0
loadshed[sink_18] 0
loadshed[sink_19] 0
loadshed[sink_20] 0
loadshed[sink_21] 3.5099907729272556e-01
loadshed[sink_22] 0
loadshed[sink_23] 0
loadshed[sink_24] 0
loadshed[sink_25] 0
loadshed[sink_26] 0
loadshed[sink_27] 0
loadshed[sink_28] 0
loadshed[sink_29] 0
flow[source_1,sink_3] 1.8694583816383664e+02
flow[innode_1,sink_16] 1.6354166666666970e+01
flow[innode_6,sink_13] 9.7317932133161378e+00
flow[sink_13,sink_14] -6.62237345335053
flow[sink_14,sink_10] -2.2976540120017198e+01
flow[sink_25,sink_26] 1.5346522845080844e+02
flow[sink_26,sink_9] 8.1770833333333655e+01
flow[sink_9,sink_18] 6.5416666666666671e+01
flow[sink_26,sink_4] 5.5340228450808127e+01
flow[sink_4,sink_20] -1.6570784002395168e+01
flow[sink_18,sink_6] 4.9062500000000313e+01
flow[sink_25,innode_8] -1.5423750483050028e+02
flow[sink_6,sink_7] 0
flow[sink_6,sink_22] 3.2708333333333641e+01
flow[sink_7,sink_24] 2.6968035923441885e+01
flow[sink_22,sink_1] 1.6354166666666970e+01
flow[sink_24,sink_21] 1.0613869256775217e+01
flow[sink_21,sink_12] 0
flow[sink_7,sink_5] -4.3322202590108553e+01
flow[sink_5,sink_17] -5.9676369256775217e+01
flow[sink_17,sink_4] -5.5556845786536627e+01
flow[sink_17,sink_8] -2.0473690136905265e+01
flow[sink_3,sink_23] 16.3541666666697
flow[sink_8,sink_20] -3.6827856803571933e+01
flow[sink_25,sink_20] 6.9752807472633776e+01
flow[sink_25,sink_15] -9.5066490972924910e+01
flow[sink_15,sink_29] -6.2191569503426535e+01
flow[sink_29,sink_28] 1.6354166666667879e+01
flow[sink_29,sink_2] 6.5583254802831490e+01
flow[sink_2,sink_15] 4.9229088136164819e+01
flow[sink_29,innode_7] -1.6048315763959241e+02
flow[innode_4,sink_19] 8.8393206786684615e+01
flow[sink_19,innode_3] 3.5154747501945508e+01
flow[innode_4,innode_5] 1.6354166666679703e+01
flow[sink_27,innode_5] -1.6354166666679703e+01
flow[sink_27,sink_19] 0
flow[sink_10,sink_11] 3.2708333333333641e+01
flow[sink_10,innode_2] -3.6884292618071996e+01
flow[sink_10,innode_3] -3.5154747501945508e+01
flow[innode_6,sink_25] -9.7317932133161378e+00
flow[sink_11,innode_1] 1.6354166666666970e+01
flow[sink_19,innode_2] 3.6884292618071996e+01
flow[source_3,innode_4] 1.0474737345336432e+02
flow[source_2,innode_7] 1.6048315763959241e+02
flow[sink_3,innode_8] 1.5423750483050028e+02
pressure[innode_1] 7.5331027456310451e+01
pressure[innode_2] 7.7432215965896830e+01
pressure[innode_3] 7.7354369758397084e+01
pressure[innode_4] 81.01325
pressure[innode_5] 8.1002000741808786e+01
pressure[innode_6] 74.4377691269091
pressure[innode_7] 81.01325
pressure[innode_8] 80.388361478917
pressure[source_1] 81.01325
pressure[source_2] 81.01325
pressure[source_3] 81.01325
pressure[sink_1] 5.2956945378692367e+01
pressure[sink_2] 7.5059656365840638e+01
pressure[sink_3] 80.388361478917
pressure[sink_4] 56.5932033401085
pressure[sink_5] 5.0024545730739959e+01
pressure[sink_6] 5.5058022989079738e+01
pressure[sink_7] 3.2007180453638483e+01
pressure[sink_8] 5.5242529405387778e+01
pressure[sink_9] 5.8735107792538024e+01
pressure[sink_10] 75.482728763914
pressure[sink_11] 7.5331027456310451e+01
pressure[sink_12] 1.01325
pressure[sink_13] 74.3841193772578
pressure[sink_14] 7.4395970678654066e+01
pressure[sink_15] 7.4898934242992325e+01
pressure[sink_16] 7.4309377621492771e+01
pressure[sink_17] 5.4470003887183310e+01
pressure[sink_18] 5.6368137817339367e+01
pressure[sink_19] 7.7432215965896830e+01
pressure[sink_20] 5.7808913104464629e+01
pressure[sink_21] 1.01325
pressure[sink_22] 5.4020714521047374e+01
pressure[sink_23] 8.0223643467257219e+01
pressure[sink_24] 1.1307887405581452e+00
pressure[sink_25] 74.4377691269091
pressure[sink_26] 6.3629303212249376e+01
pressure[sink_27] 8.0866291377726043e+01
pressure[sink_28] 7.6425671951571474e+01
pressure[sink_29] 7.6720954225188649e+01
interdiction[source_1,sink_3] 0
interdiction[innode_1,sink_16] 0
interdiction[innode_6,sink_13] 0
interdiction[sink_13,sink_14] 0
interdiction[sink_14,sink_10] 0
interdiction[sink_25,sink_26] 0
interdiction[sink_26,sink_9] 0
interdiction[sink_9,sink_18] 0
interdiction[sink_26,sink_4] 0
interdiction[sink_4,sink_20] 0
interdiction[sink_18,sink_6] 0
interdiction[sink_25,innode_8] 0
interdiction[sink_6,sink_7] 1
interdiction[sink_6,sink_22] 0
interdiction[sink_7,sink_24] 0
interdiction[sink_22,sink_1] 0
interdiction[sink_24,sink_21] 0
interdiction[sink_21,sink_12] 0
interdiction[sink_7,sink_5] 0
interdiction[sink_5,sink_17] 0
interdiction[sink_17,sink_4] 0
interdiction[sink_17,sink_8] 0
interdiction[sink_3,sink_23] 0
interdiction[sink_8,sink_20] 0
interdiction[sink_25,sink_20] 0
interdiction[sink_25,sink_15] 0
interdiction[sink_15,sink_29] 0
interdiction[sink_29,sink_28] 0
interdiction[sink_29,sink_2] 0
interdiction[sink_2,sink_15] 0
interdiction[sink_29,innode_7] 0
interdiction[innode_4,sink_19] 0
interdiction[sink_19,innode_3] 0
interdiction[innode_4,innode_5] 0
interdiction[sink_27,innode_5] 0
interdiction[sink_27,sink_19] 1
interdiction[sink_10,sink_11] 0
interdiction[sink_10,innode_2] 0
interdiction[sink_10,innode_3] 0
interdiction[innode_6,sink_25] 0
interdiction[sink_11,innode_1] 0
interdiction[sink_19,innode_2] 0
interdiction[source_3,innode_4] 0
interdiction[source_2,innode_7] 0
interdiction[sink_3,innode_8] 0
WCcheckFlow[source_1,sink_3] 39
WCcheckFlow[innode_1,sink_16] 1
WCcheckFlow[innode_6,sink_13] 13
WCcheckFlow[sink_13,sink_14] 12
WCcheckFlow[sink_14,sink_10] 11
WCcheckFlow[sink_25,sink_26] 15
WCcheckFlow[sink_26,sink_9] 5
WCcheckFlow[sink_9,sink_18] 4
WCcheckFlow[sink_26,sink_4] 9
WCcheckFlow[sink_4,sink_20] 1
WCcheckFlow[sink_18,sink_6] 3
WCcheckFlow[sink_25,innode_8] -36
WCcheckFlow[sink_6,sink_7] 0
WCcheckFlow[sink_6,sink_22] 2
WCcheckFlow[sink_7,sink_24] 3
WCcheckFlow[sink_22,sink_1] 1
WCcheckFlow[sink_24,sink_21] 2
WCcheckFlow[sink_21,sink_12] 1
WCcheckFlow[sink_7,sink_5] -4
WCcheckFlow[sink_5,sink_17] -5
WCcheckFlow[sink_17,sink_4] -7
WCcheckFlow[sink_17,sink_8] 1
WCcheckFlow[sink_3,sink_23] 1
WCcheckFlow[sink_8,sink_20] 0
WCcheckFlow[sink_25,sink_20] 0
WCcheckFlow[sink_25,sink_15] 6
WCcheckFlow[sink_15,sink_29] 5
WCcheckFlow[sink_29,sink_28] 1
WCcheckFlow[sink_29,sink_2] 1
WCcheckFlow[sink_2,sink_15] 0
WCcheckFlow[sink_29,innode_7] 2
WCcheckFlow[innode_4,sink_19] -4
WCcheckFlow[sink_19,innode_3] -5
WCcheckFlow[innode_4,innode_5] 2
WCcheckFlow[sink_27,innode_5] -1
WCcheckFlow[sink_27,sink_19] 0
WCcheckFlow[sink_10,sink_11] 3
WCcheckFlow[sink_10,innode_2] 1
WCcheckFlow[sink_10,innode_3] 6
WCcheckFlow[innode_6,sink_25] -14
WCcheckFlow[sink_11,innode_1] 2
WCcheckFlow[sink_19,innode_2] 0
WCcheckFlow[source_3,innode_4] -1
WCcheckFlow[source_2,innode_7] -1
WCcheckFlow[sink_3,innode_8] 37
